NAME lp_typeD_4936
OBJSENSE MAX
ROWS
 N  OBJ
 L  c0      
 L  c1      
 G  c2      
 G  c3      
 L  c_key_upper
 G  c_key_lower
 G  _chain_constr_1
 G  _chain_constr_2
 G  _chain_constr_3
 G  _chain_cycle
COLUMNS
    x0        OBJ       7.3047678028605834e-01
    x0        c0        1.6031259025470266e+00
    x0        c1        1.6839267972789558e+00
    x0        c2        1.8767981744526825e+00
    x0        c3        1.2128245759856326e+00
    x0        c_key_upper  1.0160361873009611e+00
    x0        c_key_lower  1.0160361873009611e+00
    x1        OBJ       1.2802445740773811e+00
    x1        c0        1.3872483147236458e+00
    x1        c1        1.4851896015741513e+00
    x1        c2        5.7058253644268508e-01
    x1        c3        1.9467382599288872e+00
    x1        c_key_upper  1.7990231363232030e+00
    x1        c_key_lower  1.7990231363232030e+00
    x2        OBJ       1.4946937992265341e+00
    x2        c0        1.4357274636317057e+00
    x2        c1        5.1208302638704972e-01
    x2        c2        0.788137445834657
    x2        c3        1.4282039333710512e+00
    x2        c_key_upper  1.9421080311984313e+00
    x2        c_key_lower  1.9421080311984313e+00
    x3        OBJ       1.1346894172222495e+00
    x3        c0        7.8089073670140241e-01
    x3        c1        1.3664596981954948e+00
    x3        c2        1.7138944084840602e+00
    x3        c3        1.5841137076264487e+00
    x3        c_key_upper  1.5569329513021124e+00
    x3        c_key_lower  1.5569329513021124e+00
    x4        OBJ       8.3031104905095376e-01
    x4        c0        1.9980793363146083e+00
    x4        c1        5.3777329698878262e-01
    x4        c2        1.0636620508259669e+00
    x4        c3        1.3283130944716608e+00
    x4        c_key_upper  1.3053990376735793e+00
    x4        c_key_lower  1.3053990376735793e+00
    x5        OBJ       1.1303949025970126e+00
    x5        c0        6.3547507250082091e-01
    x5        c1        1.6925900903771336e+00
    x5        c2        6.5949849164294960e-01
    x5        c3        1.9454654792434005e+00
    x5        c_key_upper  1.5900603795200183e+00
    x5        c_key_lower  1.5900603795200183e+00
    _chain_var_0  _chain_constr_1  -1
    _chain_var_0  _chain_cycle  1
    _chain_var_1  _chain_constr_1  1
    _chain_var_1  _chain_constr_2  -1
    _chain_var_2  _chain_constr_2  1
    _chain_var_2  _chain_constr_3  -1
    _chain_var_3  _chain_constr_3  1
    _chain_var_3  _chain_cycle  -1
RHS
    RHS1      c0        4.0026176177060577e+01
    RHS1      c1        4.2775237382636249e+01
    RHS1      c2        1.1726201406803053e+01
    RHS1      c3        1.3285051057672566e+01
    RHS1      c_key_upper  4.6047798616591528e+01
    RHS1      c_key_lower  2.3023899308295764e+01
    RHS1      _chain_constr_1  10
    RHS1      _chain_constr_2  10
    RHS1      _chain_constr_3  10
    RHS1      _chain_cycle  10
BOUNDS
 UP BND1      x0        10
 UP BND1      x1        10
 UP BND1      x2        10
 UP BND1      x3        10
 UP BND1      x4        10
 UP BND1      x5        10
 UP BND1      _chain_var_0  100
 UP BND1      _chain_var_1  100
 UP BND1      _chain_var_2  100
 UP BND1      _chain_var_3  100
ENDATA
